solution status: optimal solution found
objective value:                     168865.466373938
d11(0,0)                                            1 	(obj:0)
d11(1,1)                                            1 	(obj:0)
d11(2,3)                                            1 	(obj:0)
d11(4,15)                                           1 	(obj:0)
d11(4,17)                                           1 	(obj:0)
d11(4,19)                                           1 	(obj:0)
d11(4,21)                                           1 	(obj:0)
d11(4,23)                                           1 	(obj:0)
d11(4,25)                                           1 	(obj:0)
d11(4,27)                                           1 	(obj:0)
d11(4,29)                                           1 	(obj:0)
d11(5,31)                                           1 	(obj:0)
d11(5,33)                                           1 	(obj:0)
d11(5,34)                                           1 	(obj:0)
d11(5,35)                                           1 	(obj:0)
d11(5,37)                                           1 	(obj:0)
d11(5,38)                                           1 	(obj:0)
d11(5,39)                                           1 	(obj:0)
d11(5,41)                                           1 	(obj:0)
d11(5,42)                                           1 	(obj:0)
d11(5,43)                                           1 	(obj:0)
d11(5,44)                                           1 	(obj:0)
d11(5,45)                                           1 	(obj:0)
d11(5,47)                                           1 	(obj:0)
d11(5,49)                                           1 	(obj:0)
d11(5,51)                                           1 	(obj:0)
d11(5,52)                                           1 	(obj:0)
d11(5,53)                                           1 	(obj:0)
d11(5,54)                                           1 	(obj:0)
d11(5,55)                                           1 	(obj:0)
d11(5,57)                                           1 	(obj:0)
d11(5,58)                                           1 	(obj:0)
d11(5,59)                                           1 	(obj:0)
d11(5,60)                                           1 	(obj:0)
d11(5,61)                                           1 	(obj:0)
d11(5,62)                                           1 	(obj:0)
d12(2,4)                                            1 	(obj:0)
d12(2,6)                                            1 	(obj:0)
d12(3,7)                                            1 	(obj:0)
d12(3,8)                                            1 	(obj:0)
d12(3,10)                                           1 	(obj:0)
d12(3,12)                                           1 	(obj:0)
d12(3,13)                                           1 	(obj:0)
d12(3,14)                                           1 	(obj:0)
d12(4,16)                                           1 	(obj:0)
d12(4,18)                                           1 	(obj:0)
d12(4,20)                                           1 	(obj:0)
d12(4,22)                                           1 	(obj:0)
d12(4,24)                                           1 	(obj:0)
d12(4,26)                                           1 	(obj:0)
d12(4,28)                                           1 	(obj:0)
d12(4,30)                                           1 	(obj:0)
d21(3,7)                                            1 	(obj:0)
d21(4,15)                                           1 	(obj:0)
d21(5,31)                                           1 	(obj:0)
d21(5,32)                                           1 	(obj:0)
d21(5,33)                                           1 	(obj:0)
d21(5,34)                                           1 	(obj:0)
d21(5,35)                                           1 	(obj:0)
d21(5,36)                                           1 	(obj:0)
d21(5,37)                                           1 	(obj:0)
d21(5,39)                                           1 	(obj:0)
d21(5,40)                                           1 	(obj:0)
d21(5,41)                                           1 	(obj:0)
d21(5,43)                                           1 	(obj:0)
d21(5,47)                                           1 	(obj:0)
d21(5,49)                                           1 	(obj:0)
d21(5,51)                                           1 	(obj:0)
d21(5,55)                                           1 	(obj:0)
STE(1,1)                             4137.75010111115 	(obj:0)
STE(0,0)                                         6300 	(obj:0)
STE(1,2)                                         5796 	(obj:0)
STE(2,3)                             3633.75010111115 	(obj:0)
STE(2,4)                             4949.96418698766 	(obj:0)
STE(2,5)                              5292.0000000005 	(obj:0)
STE(2,6)                             6608.21408587651 	(obj:0)
STE(3,7)                             3129.75010111115 	(obj:0)
STE(3,8)                             4547.55376466109 	(obj:0)
STE(3,9)                             4445.96418698766 	(obj:0)
STE(3,10)                             5863.7678505376 	(obj:0)
STE(3,11)                            4788.00000000834 	(obj:0)
STE(3,12)                            6205.80366355044 	(obj:0)
STE(3,13)                            6104.21408587651 	(obj:0)
STE(3,14)                            7522.01774942644 	(obj:0)
STE(4,15)                            1995.75010110305 	(obj:0)
STE(4,16)                            3381.32847269469 	(obj:0)
STE(4,17)                            3413.55376465298 	(obj:0)
STE(4,18)                            4799.13213624463 	(obj:0)
STE(4,19)                            3311.96418697955 	(obj:0)
STE(4,20)                             4697.5425585712 	(obj:0)
STE(4,21)                            4729.76785052949 	(obj:0)
STE(4,22)                            6115.34622212114 	(obj:0)
STE(4,23)                            3654.00000000024 	(obj:0)
STE(4,24)                            5039.57837159188 	(obj:0)
STE(4,25)                            5071.80366354233 	(obj:0)
STE(4,26)                            6457.38203513397 	(obj:0)
STE(4,27)                             4970.2140858684 	(obj:0)
STE(4,28)                            6355.79245746004 	(obj:0)
STE(4,29)                            6388.01774941834 	(obj:0)
STE(4,30)                            7773.59612100998 	(obj:0)
STE(5,31)                           -166.499797785863 	(obj:0)
STE(5,32)                            1491.75010110305 	(obj:0)
STE(5,33)                            1219.07857380578 	(obj:0)
STE(5,34)                            2877.32847269469 	(obj:0)
STE(5,35)                            1251.30386576408 	(obj:0)
STE(5,36)                            2909.55376465298 	(obj:0)
STE(5,37)                            2636.88223735572 	(obj:0)
STE(5,38)                            4295.13213624463 	(obj:0)
STE(5,39)                            1149.71428809064 	(obj:0)
STE(5,40)                            2807.96418697955 	(obj:0)
STE(5,41)                            2535.29265968229 	(obj:0)
STE(5,42)                             4193.5425585712 	(obj:0)
STE(5,43)                            2567.51795164058 	(obj:0)
STE(5,44)                            4225.76785052949 	(obj:0)
STE(5,45)                            3953.09632323223 	(obj:0)
STE(5,46)                            5611.34622212114 	(obj:0)
STE(5,47)                            1491.75010111133 	(obj:0)
STE(5,48)                            3150.00000000024 	(obj:0)
STE(5,49)                            2877.32847270297 	(obj:0)
STE(5,50)                            4535.57837159188 	(obj:0)
STE(5,51)                            2909.55376465342 	(obj:0)
STE(5,52)                            4567.80366354233 	(obj:0)
STE(5,53)                            4295.13213624506 	(obj:0)
STE(5,54)                            5953.38203513388 	(obj:0)
STE(5,55)                            2807.96418697949 	(obj:0)
STE(5,56)                             4466.2140858684 	(obj:0)
STE(5,57)                            4193.54255857113 	(obj:0)
STE(5,58)                            5851.79245746004 	(obj:0)
STE(5,59)                            4225.76785052943 	(obj:0)
STE(5,60)                            5884.01774941834 	(obj:0)
STE(5,61)                            5611.34622212107 	(obj:0)
STE(5,62)                            7269.59612100998 	(obj:0)
y1(5,39)                             1492.42490900002 	(obj:0)
y1(5,41)                             1492.42490900002 	(obj:0)
y1(5,43)                             1492.42490900002 	(obj:0)
y1(5,45)                             1492.42490900002 	(obj:0)
y1(5,47)                             1492.42490900002 	(obj:0)
y1(5,49)                             1492.42490900002 	(obj:0)
y1(5,51)                             1492.42490900002 	(obj:0)
y1(5,53)                             1492.42490900002 	(obj:0)
y1(5,55)                             1492.42490900002 	(obj:0)
y1(5,57)                             1492.42490900002 	(obj:0)
y1(5,59)                             1492.42490900002 	(obj:0)
y1(5,61)                             1492.42490900002 	(obj:0)
AVE(1)                                   3216.9117036 	(obj:0)
WB(2)                                3366.15419450309 	(obj:0)
AVE(2)                                   3366.1541945 	(obj:0)
WB(3)                                    3515.3966854 	(obj:0)
AVE(3)                                   3515.3966854 	(obj:0)
WB(4)                                263.412698103835 	(obj:0)
AVE(4)                               3515.39406545826 	(obj:0)
AVE(5)                               3167.15385943327 	(obj:0)
WG(1)                                    3216.9117036 	(obj:10)
WG(2)                            -3.08856976275541e-009 	(obj:10)
WG(4)                                3251.98136735442 	(obj:10)
WG(5)                                3167.15385943327 	(obj:10)
BG(1)                                979.380795379592 	(obj:10)
BG(2)                                 2673.4099387786 	(obj:10)
BG(3)                                2568.57033333337 	(obj:10)
BG(5)                                1029.13863954632 	(obj:10)
y1(1,1)                              1492.42490899996 	(obj:0)
y1(4,15)                             567.000000007298 	(obj:0)
y1(4,17)                             567.000000007298 	(obj:0)
y1(4,19)                             567.000000007298 	(obj:0)
y1(4,21)                             567.000000007298 	(obj:0)
y1(4,23)                             567.000000007298 	(obj:0)
y1(4,25)                             567.000000007298 	(obj:0)
y1(4,27)                             567.000000007298 	(obj:0)
y1(4,29)                             567.000000007298 	(obj:0)
y1(5,31)                             1492.42490900002 	(obj:0)
y1(5,33)                             1492.42490900002 	(obj:0)
y1(5,35)                             1492.42490900002 	(obj:0)
y1(5,37)                             1492.42490900002 	(obj:0)
y2(2,4)                              1385.48851144895 	(obj:0)
y2(2,6)                              1385.48851144895 	(obj:0)
y2(3,8)                              1492.42490899994 	(obj:0)
y2(3,10)                             1492.42490899994 	(obj:0)
y2(3,11)                         8.26072231022238e-009 	(obj:0)
y2(3,12)                             1492.42490899994 	(obj:0)
y2(3,14)                             1492.42490899994 	(obj:0)
y2(4,16)                              795.34565429846 	(obj:0)
y2(4,18)                              795.34565429846 	(obj:0)
y2(4,20)                              795.34565429846 	(obj:0)
y2(4,22)                              795.34565429846 	(obj:0)
y2(4,24)                              795.34565429846 	(obj:0)
y2(4,26)                              795.34565429846 	(obj:0)
y2(4,28)                              795.34565429846 	(obj:0)
y2(4,30)                              795.34565429846 	(obj:0)
